s td 344 13 400
b 1 183 185
b 2 30 383
b 3 100 185 186
b 4 42 186 187
b 5 116 187 188
b 6 110 188 189
b 7 18 189 190
b 8 35 190 191
b 9 17 364
b 10 57 198 199
b 11 93 199 200
b 12 182 200 201
b 13 36 197 198
b 14 34 196 197
b 15 29 195 196
b 16 142 194 195
b 17 10 193 194
b 18 9 192 193
b 19 4 191 192
b 20 130 325 326
b 21 26 324 325
b 22 51 323 324
b 23 73 322 323
b 24 180 321 322
b 25 58 320 321
b 26 53 319 320
b 27 74 318 319
b 28 33 317 318
b 29 170 316 317
b 30 102 315 316
b 31 164 314 315
b 32 89 221 222
b 33 154 222 223
b 34 151 223 224
b 35 77 224 225
b 36 140 225 226
b 37 159 226 227
b 38 132 227 228
b 39 105 220 221
b 40 184 219 220
b 41 139 218 219
b 42 2 217 218
b 43 16 216 217
b 44 22 215 216
b 45 20 214 215
b 46 145 304 305
b 47 149 305 306
b 48 174 306 307
b 49 43 307 308
b 50 44 308 309
b 51 92 309 310
b 52 8 310 311
b 53 52 311 312
b 54 107 312 313
b 55 124 303 304
b 56 15 302 303
b 57 303 304 305
b 58 70 330 331
b 59 95 329 330
b 60 153 328 329
b 61 71 327 328
b 62 11 331 332
b 63 37 332 333
b 64 94 297 298
b 65 39 298 299
b 66 172 280 281
b 67 69 279 280
b 68 144 278 279
b 69 122 277 278
b 70 87 276 277
b 71 90 275 276
b 72 72 274 275
b 73 38 273 274
b 74 1 272 273
b 75 119 271 272
b 76 171 270 271
b 77 28 269 270
b 78 45 268 269
b 79 25 267 268
b 80 123 266 267
b 81 169 265 266
b 82 6 264 265
b 83 168 345 346
b 84 155 346 347
b 85 137 347 348
b 86 19 348 349
b 87 84 349 350
b 88 91 350 351
b 89 24 351 352
b 90 75 352 353
b 91 101 353 354
b 92 120 354 355
b 93 173 355 356
b 94 62 356 357
b 95 32 357 358
b 96 27 358 359
b 97 78 359 360
b 98 161 360 361
b 99 61 361 362
b 100 48 362 363
b 101 136 141 363
b 102 150 344 345
b 103 128 343 344
b 104 97 342 343
b 105 167 341 342
b 106 157 340 341
b 107 54 339 340
b 108 163 338 339
b 109 152 337 338
b 110 64 336 337
b 111 76 335 336
b 112 67 334 335
b 113 60 333 334
b 114 275 276 277
b 115 143 262 263
b 116 176 261 262
b 117 21 260 261
b 118 49 246 247
b 119 81 245 246
b 120 131 244 245
b 121 177 243 244
b 122 114 242 243
b 123 23 241 242
b 124 88 240 241
b 125 148 239 240
b 126 66 238 239
b 127 103 237 238
b 128 133 236 237
b 129 121 235 236
b 130 118 234 235
b 131 99 233 234
b 132 96 232 233
b 133 106 231 232
b 134 12 247 248
b 135 162 248 249
b 136 134 249 250
b 137 158 250 251
b 138 85 251 252
b 139 47 252 253
b 140 135 253 254
b 141 63 254 255
b 142 225 226 227
b 143 249 250 251
b 144 253 254 255
b 145 331 332 333
b 146 195 196 197
b 147 243 244 245
b 148 267 268 269
b 149 317 318 319
b 150 236 237 238
b 151 127 212 213
b 152 104 211 212
b 153 165 210 211
b 154 126 209 210
b 155 310 311 312
b 156 316 317 319
b 157 265 266 267
b 158 220 221 222
b 159 199 200 201
b 160 316 319 320
b 161 302 303 305
b 162 194 195 197
b 163 305 306 307
b 164 249 251 252
b 165 234 235 236
b 166 193 194 197
b 167 275 277 278
b 168 4 192 193
b 169 271 272 273
b 170 248 249 252
b 171 219 220 222
b 172 246 247 248
b 173 329 330 331
b 174 147 291 292
b 175 166 290 291
b 176 138 289 290
b 177 59 288 289
b 178 7 287 288
b 179 111 286 287
b 180 46 285 286
b 181 40 284 285
b 182 109 283 284
b 183 83 282 283
b 184 82 292 293
b 185 223 224 225
b 186 267 269 270
b 187 215 216 217
b 188 321 322 323
b 189 238 239 240
b 190 245 246 248
b 191 197 198 199
b 192 297 298 299
b 193 240 241 242
b 194 129 295 296
b 195 14 294 295
b 196 156 364 365
b 197 60 331 333
b 198 316 320 321
b 199 316 321 323
b 200 60 329 331
b 201 267 270 271
b 202 275 278 279
b 203 238 240 242
b 204 218 219 222
b 205 302 305 307
b 206 210 211 212
b 207 197 199 201
b 208 310 312 313
b 209 324 325 326
b 210 236 238 242
b 211 179 206 207
b 212 146 205 206
b 213 115 204 205
b 214 112 203 204
b 215 98 202 203
b 216 117 207 208
b 217 203 204 205
b 218 260 261 262
b 219 271 273 274
b 220 285 286 287
b 221 214 215 217
b 222 205 206 207
b 223 242 243 245
b 224 233 234 236
b 225 233 236 242
b 226 260 262 263
b 227 284 285 287
b 228 289 290 291
b 229 248 252 253
b 230 323 324 326
b 231 223 225 227
b 232 294 295 296
b 233 302 307 308
b 234 217 218 222
b 235 315 316 323
b 236 282 283 284
b 237 223 227 228
b 238 181 383 384
b 239 275 279 280
b 240 275 280 281
b 241 4 193 197
b 242 222 223 228
b 243 264 265 267
b 244 267 271 274
b 245 108 256 257
b 246 214 217 222
b 247 60 328 329
b 248 55 229 230
b 249 274 275 281
b 250 302 308 309
b 251 205 207 208
b 252 233 242 245
b 253 282 284 287
b 254 245 248 253
b 255 287 288 289
b 256 60 327 328
b 257 202 203 205
b 258 231 232 233
b 259 267 274 281
b 260 287 289 291
b 261 210 212 213
b 262 202 205 208
b 263 282 287 291
b 264 214 222 228
b 265 291 292 293
b 266 231 233 245
b 267 231 245 253
b 268 209 210 213
b 269 264 267 281
b 270 314 315 323
b 271 231 253 255
b 272 314 323 326
b 273 282 291 293
b 274 309 310 313
b 275 302 309 313
b 276 4 197 201
b 277 5 258 259
b 278 156 259 260 263
b 279 156 258 259 263
b 280 156 258 263 365
b 281 31 263 264 281
b 282 65 293 294 296
b 283 65 282 293 296
b 284 113 255 256 257
b 285 113 231 255 257
b 286 13 208 209 213
b 287 13 202 208 213
b 288 4 80 201 202
b 289 68 213 214 228
b 290 60 160 326 327
b 291 60 160 314 326
b 292 178 228 229 230
b 293 50 296 297 299
b 294 56 302 313 314
b 295 181 365 366 384
b 296 13 68 202 213 228
b 297 258 263 365 366 384
b 298 4 80 398 399 400
b 299 56 60 160 302 314
b 300 4 80 380 381 382
b 301 50 65 282 296 299
b 302 86 178 228 230 231
b 303 86 178 390 391 392
b 304 86 178 372 373 374
b 305 113 175 231 257 258
b 306 13 175 378 379 380
b 307 13 175 396 397 398
b 308 60 65 376 377 378
b 309 113 160 374 375 376
b 310 60 113 394 395 396
b 311 65 160 392 393 394
b 312 31 79 263 281 282
b 313 68 79 388 389 390
b 314 68 79 370 371 372
b 315 3 31 368 369 370
b 316 3 31 386 387 388
b 317 41 125 384 385 386
b 318 41 125 366 367 368
b 319 3 41 300 301 302
b 320 3 41 125 299 300 302
b 321 60 65 113 160 374 376 378
b 322 60 65 113 160 392 394 396
b 323 4 13 68 80 202 228
b 324 4 50 56 80 398 400
b 325 4 50 56 80 380 382
b 326 41 125 258 263 366 384 386
b 327 41 125 258 263 366 368 386
b 328 3 31 68 79 386 388 390
b 329 3 31 68 79 368 370 372
b 330 31 50 65 79 263 282 299
b 331 3 41 125 258 263 299 302 368 386
b 332 86 113 175 178 228 231 258
b 333 4 13 50 56 80 175 396 398
b 334 4 13 50 56 80 175 378 380
b 335 4 13 50 56 68 80 175 228 378 396
b 336 60 65 86 113 160 178 390 392 396
b 337 60 65 86 113 160 178 372 374 378
b 338 3 31 68 79 258 263 299 302 368 372 386
b 339 3 31 68 79 258 263 299 302 372 386 390
b 340 31 50 65 68 79 258 263 299 302 372 390
b 341 50 56 60 65 68 160 258 302 372 390
b 342 50 56 60 65 68 86 113 160 178 258 372 390 396
b 343 50 56 60 65 68 86 113 160 178 258 372 378 396
b 344 50 56 68 86 113 175 178 228 258 378 396
343 344
335 344
332 344
302 332
305 332
285 305
284 285
271 285
267 271
144 271
141 144
140 144
266 267
254 267
229 254
190 254
172 190
119 190
134 172
118 172
170 229
139 229
164 170
135 170
143 164
138 164
137 143
136 143
258 266
252 266
225 252
223 252
147 223
122 223
120 147
121 147
224 225
210 225
203 210
150 210
127 150
128 150
193 203
189 203
125 189
126 189
124 193
123 193
165 224
131 224
130 165
129 165
133 258
132 258
245 284
292 302
248 292
333 335
334 335
323 335
296 323
288 323
276 288
241 276
207 276
191 207
159 207
12 159
11 159
10 191
13 191
166 241
168 241
19 168
18 168
8 19
7 8
6 7
5 6
4 5
3 4
1 3
17 166
162 166
16 162
146 162
14 146
15 146
287 296
289 296
264 289
242 264
246 264
234 246
221 246
45 221
187 221
44 187
43 187
42 234
204 234
41 204
171 204
40 171
158 171
39 158
32 158
237 242
33 242
231 237
38 237
185 231
142 231
37 142
36 142
34 185
35 185
286 287
262 287
257 262
251 262
222 251
216 251
212 222
211 222
217 257
215 257
214 217
213 217
268 286
261 268
154 268
206 261
151 261
153 206
152 206
325 334
306 334
300 325
324 333
307 333
298 324
342 343
337 343
321 337
304 337
309 321
308 321
341 342
336 342
322 336
303 336
310 322
311 322
340 341
299 341
291 299
294 299
275 294
274 275
250 275
50 250
233 250
49 233
205 233
163 205
161 205
56 161
57 161
46 57
55 57
48 163
47 163
51 274
208 274
155 208
54 208
52 155
53 155
290 291
272 291
270 272
230 272
22 230
209 230
21 209
20 209
235 270
31 270
199 235
30 235
198 199
188 199
24 188
23 188
25 198
160 198
156 160
26 160
149 156
29 156
27 149
28 149
256 290
247 256
61 256
200 247
60 247
197 200
173 200
59 173
58 173
113 197
145 197
63 145
62 145
112 113
111 112
110 111
109 110
108 109
107 108
106 107
105 106
104 105
103 104
102 103
83 102
84 83
85 84
86 85
87 86
88 87
89 88
90 89
91 90
92 91
93 92
94 93
95 94
96 95
97 96
98 97
99 98
100 99
101 100
339 340
330 340
312 330
301 330
293 301
283 301
282 283
273 283
265 273
263 273
260 263
253 263
236 253
227 253
220 227
181 227
179 220
180 220
182 236
183 236
255 260
228 260
176 228
175 228
178 255
177 255
184 265
174 265
232 282
194 232
195 232
192 293
65 192
64 192
281 312
269 281
259 269
243 269
82 243
157 243
81 157
80 157
249 259
244 259
219 244
201 244
76 201
186 201
77 186
148 186
78 148
79 148
73 219
169 219
75 169
74 169
240 249
72 249
239 240
66 240
202 239
67 239
167 202
68 202
114 167
69 167
71 114
70 114
338 339
328 339
313 328
316 328
331 338
329 338
315 329
314 329
327 331
320 331
319 320
326 327
318 327
297 326
317 326
295 297
280 297
279 280
196 280
9 196
278 279
277 279
226 278
218 226
115 226
116 218
117 218
238 295
2 238
